\* EMD of histogram intersection *\
Maximize
OBJ: 6 x0_0 + 6.5 x0_1 + 3.5 x0_2 + 1.5 x0_3 + 3.5 x1_0 + 2.5 x1_1 + 6.5 x1_2
 + 5 x1_3 + 3 x2_0 + 8.5 x2_1 + 8 x2_2 + 12.5 x2_3 + 9 x3_0 + 8 x3_1
 + 7.5 x3_2 + 10.5 x3_3
Subject To
_C1: x0_0 + x0_1 + x0_2 + x0_3 = 1
_C2: x1_0 + x1_1 + x1_2 + x1_3 = 1
_C3: x2_0 + x2_1 + x2_2 + x2_3 = 1
_C4: x3_0 + x3_1 + x3_2 + x3_3 = 1
_C5: x0_0 + x1_0 + x2_0 + x3_0 = 1
_C6: x0_1 + x1_1 + x2_1 + x3_1 = 1
_C7: x0_2 + x1_2 + x2_2 + x3_2 = 1
_C8: x0_3 + x1_3 + x2_3 + x3_3 = 1
End
